(set-logic QF_S)
(declare-fun var_0xINPUT_36077 () String)
(assert (and (= (len var_0xINPUT_36077) 0) (= (len var_0xINPUT_36077) 0) (not (= var_0xINPUT_36077 "AUEAICDdfN"))))
(check-sat var_0xINPUT_36077)